GLPSOL--GLPK LP/MIP Solver 5.0
Parameter(s) specified in the command line:
 --lp ../modeles/3_474.lp --log 3_474.log
Reading problem data from '../modeles/3_474.lp'...
1435 rows, 2850 columns, 9963 non-zeros
1422 integer variables, all of which are binary
4294 lines were read
GLPK Integer Optimizer 5.0
1435 rows, 2850 columns, 9963 non-zeros
1422 integer variables, all of which are binary
Preprocessing...
1410 constraint coefficient(s) were reduced
1435 rows, 2847 columns, 9960 non-zeros
1422 integer variables, all of which are binary
Scaling...
 A: min|aij| =  7.121e-05  max|aij| =  4.000e+00  ratio =  5.617e+04
GM: min|aij| =  6.496e-02  max|aij| =  1.539e+01  ratio =  2.370e+02
EQ: min|aij| =  4.219e-03  max|aij| =  1.000e+00  ratio =  2.370e+02
2N: min|aij| =  3.906e-03  max|aij| =  1.773e+00  ratio =  4.538e+02
Constructing initial basis...
Size of triangular part is 1435
Solving LP relaxation...
GLPK Simplex Optimizer 5.0
1435 rows, 2847 columns, 9960 non-zeros
      0: obj =   6.000000000e+00 inf =   1.450e+01 (7)
     80: obj =   4.649435162e-01 inf =   0.000e+00 (0)
*   273: obj =  -1.732005913e+00 inf =   5.924e-16 (0)
OPTIMAL LP SOLUTION FOUND
Integer optimization begins...
Long-step dual simplex will be used
+   273: mip =     not found yet >=              -inf        (1; 0)
+   275: >>>>>  -1.732005913e+00 >=  -1.732005913e+00   0.0% (3; 0)
+   275: mip =  -1.732005913e+00 >=     tree is empty   0.0% (0; 5)
INTEGER OPTIMAL SOLUTION FOUND
Time used:   0.0 secs
Memory used: 4.0 Mb (4178333 bytes)
